14
-1 27 23 34 9 35 1 5 28 4 45 6 7 45 
12 -1 31 16 22 35 1 31 21 25 43 50 22 37 
37 6 -1 8 1 16 19 4 39 14 12 4 31 17 
19 2 26 -1 28 28 38 23 2 10 23 39 17 13 
11 27 47 34 -1 30 43 39 39 35 29 38 50 34 
47 27 3 49 3 -1 9 21 11 37 45 3 20 31 
41 40 37 29 4 1 -1 30 27 41 9 25 24 6 
35 19 14 24 13 2 26 -1 34 5 21 22 12 5 
13 46 36 48 9 22 46 5 -1 6 33 30 24 29 
19 47 31 10 7 3 22 36 50 -1 39 27 35 9 
14 5 5 11 42 18 46 23 21 48 -1 3 23 27 
40 23 5 21 46 15 19 20 13 40 31 -1 20 46 
20 20 28 44 34 42 14 18 6 13 2 9 -1 10 
1 27 38 40 35 49 11 45 16 13 20 50 17 -1 
